# Solution for model PD-Stages
# Objective value = 3.7114979656780960e+01
zigjg[101,102,1] 0
zigjg[101,203,1] 1
zigjg[101,303,1] 0
zigjg[102,101,1] 1
zigjg[102,203,1] 0
zigjg[102,303,1] 0
zigjg[203,101,1] 0
zigjg[203,102,1] 0
zigjg[203,303,1] 1
zigjg[303,101,1] 0
zigjg[303,102,1] 1
zigjg[303,203,1] 0
sig[101,1] 0
sig[102,1] 3
sig[203,1] 1
sig[303,1] 2
digjg[101,102,1] 10000
digjg[101,203,1] 0
digjg[101,303,1] 10000
digjg[102,101,1] 0
digjg[102,203,1] 10000
digjg[102,303,1] 10000
digjg[203,101,1] 10000
digjg[203,102,1] 10000
digjg[203,303,1] 0
digjg[303,101,1] 10000
digjg[303,102,1] 0
digjg[303,203,1] 10000
difigjg[101,102,1,0] 6.4224072015340061e+00
difigjg[101,102,1,1] 1.1829334775896248e+01
difigjg[101,203,1,0] 0
difigjg[101,203,1,1] 0
difigjg[101,303,1,0] 1.4598876057261236e+00
difigjg[101,303,1,1] 1.2915031825432521e+01
difigjg[102,101,1,0] 0
difigjg[102,101,1,1] 0
difigjg[102,203,1,0] 7.6124903489082154e+00
difigjg[102,203,1,1] 4.8146566399373114e-01
difigjg[102,303,1,0] 6.1526027431821557e+00
difigjg[102,303,1,1] 1.2433566161437389e+01
difigjg[203,101,1,0] 6.15260274318232
difigjg[203,101,1,1] 1.2433566161438570e+01
difigjg[203,102,1,0] 4.9625195958077484e+00
difigjg[203,102,1,1] 1.0856970495362166e+00
difigjg[203,303,1,0] 0
difigjg[203,303,1,1] 0
difigjg[303,101,1,0] 1.1900831473758444e+00
difigjg[303,101,1,1] 1.1347869111903591e+01
difigjg[303,102,1,0] 0
difigjg[303,102,1,1] 0
difigjg[303,203,1,0] 6.4224072015337867e+00
difigjg[303,203,1,1] 1.1829334775897514e+01
pigjg[101,102,1] 0
pigjg[101,203,1] 0
pigjg[101,303,1] 0
pigjg[102,101,1] 0
pigjg[102,203,1] 0
pigjg[102,303,1] 0
pigjg[203,101,1] 0
pigjg[203,102,1] 0
pigjg[203,303,1] 0
pigjg[303,101,1] 0
pigjg[303,102,1] 0
pigjg[303,203,1] 0
Rig[101,1,0] 9.2387509651091648e+01
Rig[101,1,1] 2.8760880398366986e+01
Rig[102,1,0] 9.3577592798466057e+01
Rig[102,1,1] 4.0108749510269341e+01
Rig[203,1,0] 9.9999999999999986e+01
Rig[203,1,1] 2.8279414734373063e+01
Rig[303,1,0] 9.8540112394273947e+01
Rig[303,1,1] 4.1194446559805613e+01
rhoig[101,1] 1.0000000000000071e+00
rhoig[102,1] 1.2212453270876722e-13
rhoig[203,1] 9.9999999999999867e-01
rhoig[303,1] 0
Lig[101,1,0] 1.0000000000000006e+02
Lig[101,1,1] 2.8279414734373091e+01
Lig[102,1,0] 9.2387509651091776e+01
Lig[102,1,1] 2.8760880398368222e+01
Lig[203,1,0] 9.8540112394273933e+01
Lig[203,1,1] 4.1194446559805556e+01
Lig[303,1,0] 93.5775927984662
Lig[303,1,1] 4.0108749510270577e+01
landaig[101,1] 0
landaig[102,1] 9.9999999999990408e-01
landaig[203,1] 4.4408920985006262e-16
landaig[303,1] 1
minig[101,1] 0
minig[102,1] 9.9999999999989087e-01
minig[203,1] 0
minig[303,1] 1
maxig[101,1] 1
maxig[102,1] 1.0913492332065289e-13
maxig[203,1] 1
maxig[303,1] 0
entryig[101,1] 0
entryig[102,1] 9.9999999999989087e-01
entryig[203,1] 0
entryig[303,1] 1
muig[101,1] 1
muig[102,1] 1
muig[203,1] 1
muig[303,1] 1
pig[101,1] 1
pig[102,1] 1
pig[203,1] 1
pig[303,1] 1
alphaig[101,1] 1
alphaig[102,1] 1
alphaig[203,1] 1
alphaig[303,1] 1
